55
1 0 1
2 0 1
2 1 2
3 0 3
3 1 2
3 2 1
4 0 5
4 1 1
4 2 4
4 3 2
5 0 3
5 1 1
5 2 3
5 3 2
5 4 2
6 0 3
6 1 5
6 2 3
6 3 2
6 4 5
6 5 5
7 0 1
7 1 2
7 2 2
7 3 3
7 4 3
7 5 4
7 6 3
8 0 3
8 1 2
8 2 1
8 3 5
8 4 1
8 5 1
8 6 3
8 7 4
9 0 5
9 1 5
9 2 4
9 3 2
9 4 1
9 5 2
9 6 4
9 7 5
9 8 1
10 0 1
10 1 2
10 2 1
10 3 4
10 4 2
10 5 5
10 6 5
10 7 4
10 8 5
10 9 2
11 0 3
11 1 4
11 2 1
11 3 2
11 4 3
11 5 5
11 6 2
11 7 3
11 8 5
11 9 5
11 10 4
12 0 4
12 1 1
12 2 3
12 3 1
12 4 5
12 5 5
12 6 4
12 7 2
12 8 1
12 9 3
12 10 4
12 11 5
13 0 1
13 1 4
13 2 1
13 3 1
13 4 5
13 5 1
13 6 4
13 7 5
13 8 4
13 9 2
13 10 5
13 11 1
13 12 1
14 0 5
14 1 3
14 2 4
14 3 1
14 4 2
14 5 1
14 6 5
14 7 5
14 8 4
14 9 4
14 10 5
14 11 4
14 12 3
14 13 4
15 0 1
15 1 3
15 2 1
15 3 4
15 4 5
15 5 3
15 6 5
15 7 2
15 8 4
15 9 5
15 10 2
15 11 2
15 12 4
15 13 3
15 14 2
16 0 1
16 1 3
16 2 4
16 3 3
16 4 5
16 5 1
16 6 3
16 7 3
16 8 3
16 9 5
16 10 5
16 11 5
16 12 1
16 13 1
16 14 1
16 15 3
17 0 3
17 1 1
17 2 4
17 3 2
17 4 2
17 5 3
17 6 2
17 7 4
17 8 3
17 9 2
17 10 5
17 11 3
17 12 1
17 13 4
17 14 4
17 15 1
17 16 4
18 0 1
18 1 1
18 2 4
18 3 4
18 4 3
18 5 4
18 6 2
18 7 3
18 8 2
18 9 5
18 10 1
18 11 4
18 12 3
18 13 3
18 14 2
18 15 3
18 16 1
18 17 5
19 0 3
19 1 1
19 2 5
19 3 3
19 4 3
19 5 5
19 6 5
19 7 2
19 8 3
19 9 2
19 10 3
19 11 2
19 12 2
19 13 2
19 14 3
19 15 3
19 16 3
19 17 3
19 18 3
20 0 1
20 1 1
20 2 5
20 3 3
20 4 4
20 5 4
20 6 2
20 7 3
20 8 2
20 9 5
20 10 1
20 11 3
20 12 5
20 13 1
20 14 4
20 15 4
20 16 3
20 17 2
20 18 4
20 19 1
21 0 5
21 1 4
21 2 3
21 3 4
21 4 4
21 5 1
21 6 3
21 7 1
21 8 5
21 9 5
21 10 3
21 11 4
21 12 5
21 13 5
21 14 1
21 15 2
21 16 2
21 17 5
21 18 5
21 19 4
21 20 3
22 0 1
22 1 5
22 2 3
22 3 5
22 4 5
22 5 2
22 6 4
22 7 2
22 8 5
22 9 1
22 10 5
22 11 3
22 12 3
22 13 2
22 14 5
22 15 1
22 16 5
22 17 3
22 18 5
22 19 1
22 20 5
22 21 3
23 0 2
23 1 2
23 2 5
23 3 1
23 4 5
23 5 3
23 6 1
23 7 3
23 8 5
23 9 2
23 10 4
23 11 5
23 12 1
23 13 5
23 14 2
23 15 5
23 16 4
23 17 4
23 18 2
23 19 5
23 20 4
23 21 1
23 22 5
24 0 4
24 1 4
24 2 4
24 3 5
24 4 5
24 5 1
24 6 2
24 7 4
24 8 2
24 9 2
24 10 4
24 11 1
24 12 5
24 13 3
24 14 1
24 15 4
24 16 3
24 17 1
24 18 5
24 19 3
24 20 1
24 21 3
24 22 5
24 23 2
25 0 5
25 1 5
25 2 2
25 3 2
25 4 1
25 5 1
25 6 1
25 7 1
25 8 3
25 9 5
25 10 3
25 11 5
25 12 2
25 13 4
25 14 4
25 15 3
25 16 1
25 17 2
25 18 3
25 19 5
25 20 3
25 21 5
25 22 2
25 23 1
25 24 1
26 0 4
26 1 3
26 2 1
26 3 4
26 4 1
26 5 4
26 6 5
26 7 3
26 8 1
26 9 5
26 10 2
26 11 3
26 12 1
26 13 5
26 14 1
26 15 3
26 16 5
26 17 5
26 18 1
26 19 5
26 20 2
26 21 5
26 22 2
26 23 3
26 24 4
26 25 2
27 0 1
27 1 5
27 2 4
27 3 4
27 4 3
27 5 2
27 6 1
27 7 1
27 8 2
27 9 5
27 10 2
27 11 5
27 12 2
27 13 2
27 14 4
27 15 5
27 16 3
27 17 5
27 18 5
27 19 4
27 20 5
27 21 4
27 22 3
27 23 4
27 24 2
27 25 2
27 26 1
28 0 2
28 1 4
28 2 3
28 3 3
28 4 4
28 5 2
28 6 1
28 7 2
28 8 1
28 9 3
28 10 1
28 11 1
28 12 4
28 13 3
28 14 2
28 15 5
28 16 1
28 17 3
28 18 1
28 19 4
28 20 1
28 21 1
28 22 3
28 23 4
28 24 3
28 25 2
28 26 2
28 27 1
29 0 4
29 1 5
29 2 2
29 3 3
29 4 5
29 5 4
29 6 3
29 7 2
29 8 2
29 9 5
29 10 3
29 11 5
29 12 4
29 13 3
29 14 2
29 15 4
29 16 1
29 17 3
29 18 3
29 19 2
29 20 3
29 21 2
29 22 5
29 23 2
29 24 4
29 25 2
29 26 2
29 27 1
29 28 5
30 0 1
30 1 1
30 2 2
30 3 2
30 4 2
30 5 2
30 6 4
30 7 3
30 8 4
30 9 1
30 10 4
30 11 2
30 12 5
30 13 1
30 14 2
30 15 5
30 16 4
30 17 3
30 18 3
30 19 2
30 20 3
30 21 1
30 22 4
30 23 4
30 24 5
30 25 2
30 26 5
30 27 2
30 28 3
30 29 3
31 0 3
31 1 5
31 2 1
31 3 2
31 4 3
31 5 4
31 6 1
31 7 3
31 8 2
31 9 1
31 10 1
31 11 1
31 12 3
31 13 2
31 14 2
31 15 5
31 16 2
31 17 2
31 18 4
31 19 3
31 20 2
31 21 1
31 22 4
31 23 5
31 24 4
31 25 5
31 26 5
31 27 3
31 28 5
31 29 5
31 30 5
32 0 5
32 1 3
32 2 3
32 3 3
32 4 4
32 5 2
32 6 5
32 7 1
32 8 3
32 9 4
32 10 3
32 11 2
32 12 4
32 13 4
32 14 2
32 15 3
32 16 3
32 17 3
32 18 1
32 19 2
32 20 2
32 21 5
32 22 5
32 23 3
32 24 5
32 25 3
32 26 4
32 27 1
32 28 4
32 29 2
32 30 5
32 31 1
33 0 4
33 1 5
33 2 5
33 3 1
33 4 5
33 5 5
33 6 3
33 7 1
33 8 5
33 9 1
33 10 2
33 11 2
33 12 1
33 13 2
33 14 3
33 15 3
33 16 5
33 17 3
33 18 2
33 19 1
33 20 3
33 21 5
33 22 2
33 23 1
33 24 4
33 25 1
33 26 1
33 27 5
33 28 4
33 29 2
33 30 3
33 31 3
33 32 4
34 0 5
34 1 5
34 2 4
34 3 3
34 4 3
34 5 5
34 6 1
34 7 2
34 8 5
34 9 2
34 10 4
34 11 5
34 12 1
34 13 5
34 14 4
34 15 1
34 16 3
34 17 4
34 18 1
34 19 4
34 20 3
34 21 5
34 22 1
34 23 5
34 24 3
34 25 2
34 26 1
34 27 1
34 28 5
34 29 1
34 30 2
34 31 4
34 32 2
34 33 3
35 0 4
35 1 5
35 2 3
35 3 1
35 4 2
35 5 1
35 6 2
35 7 2
35 8 3
35 9 1
35 10 1
35 11 2
35 12 5
35 13 3
35 14 2
35 15 4
35 16 4
35 17 1
35 18 3
35 19 3
35 20 4
35 21 1
35 22 5
35 23 1
35 24 4
35 25 2
35 26 4
35 27 5
35 28 3
35 29 5
35 30 5
35 31 3
35 32 5
35 33 1
35 34 4
36 0 5
36 1 5
36 2 3
36 3 5
36 4 3
36 5 1
36 6 4
36 7 1
36 8 2
36 9 5
36 10 3
36 11 2
36 12 4
36 13 1
36 14 2
36 15 2
36 16 3
36 17 2
36 18 3
36 19 4
36 20 1
36 21 2
36 22 3
36 23 2
36 24 3
36 25 1
36 26 5
36 27 3
36 28 2
36 29 2
36 30 5
36 31 1
36 32 4
36 33 1
36 34 4
36 35 4
37 0 2
37 1 3
37 2 5
37 3 5
37 4 4
37 5 3
37 6 3
37 7 5
37 8 3
37 9 1
37 10 3
37 11 4
37 12 5
37 13 2
37 14 3
37 15 4
37 16 2
37 17 4
37 18 5
37 19 2
37 20 1
37 21 5
37 22 1
37 23 4
37 24 4
37 25 5
37 26 1
37 27 3
37 28 5
37 29 3
37 30 2
37 31 4
37 32 2
37 33 1
37 34 3
37 35 4
37 36 3
38 0 4
38 1 1
38 2 2
38 3 3
38 4 5
38 5 1
38 6 5
38 7 2
38 8 2
38 9 2
38 10 2
38 11 5
38 12 2
38 13 3
38 14 5
38 15 1
38 16 2
38 17 5
38 18 5
38 19 1
38 20 4
38 21 1
38 22 4
38 23 4
38 24 2
38 25 2
38 26 3
38 27 1
38 28 3
38 29 3
38 30 4
38 31 2
38 32 1
38 33 2
38 34 2
38 35 3
38 36 1
38 37 1
39 0 4
39 1 1
39 2 3
39 3 5
39 4 5
39 5 2
39 6 2
39 7 1
39 8 1
39 9 4
39 10 2
39 11 4
39 12 5
39 13 3
39 14 2
39 15 2
39 16 1
39 17 5
39 18 2
39 19 2
39 20 3
39 21 1
39 22 5
39 23 1
39 24 1
39 25 5
39 26 2
39 27 3
39 28 1
39 29 1
39 30 4
39 31 5
39 32 2
39 33 2
39 34 3
39 35 4
39 36 3
39 37 5
39 38 5
40 0 4
40 1 1
40 2 4
40 3 1
40 4 3
40 5 2
40 6 1
40 7 1
40 8 4
40 9 2
40 10 3
40 11 5
40 12 2
40 13 5
40 14 5
40 15 1
40 16 3
40 17 5
40 18 2
40 19 3
40 20 5
40 21 5
40 22 1
40 23 5
40 24 3
40 25 1
40 26 3
40 27 3
40 28 4
40 29 2
40 30 5
40 31 1
40 32 3
40 33 2
40 34 5
40 35 3
40 36 5
40 37 1
40 38 2
40 39 3
41 0 4
41 1 2
41 2 1
41 3 4
41 4 1
41 5 3
41 6 1
41 7 4
41 8 3
41 9 4
41 10 3
41 11 5
41 12 2
41 13 1
41 14 1
41 15 3
41 16 4
41 17 2
41 18 1
41 19 4
41 20 2
41 21 5
41 22 3
41 23 1
41 24 4
41 25 2
41 26 4
41 27 5
41 28 2
41 29 3
41 30 5
41 31 1
41 32 5
41 33 5
41 34 1
41 35 3
41 36 4
41 37 5
41 38 1
41 39 2
41 40 3
42 0 3
42 1 4
42 2 4
42 3 1
42 4 3
42 5 4
42 6 1
42 7 4
42 8 2
42 9 3
42 10 1
42 11 4
42 12 4
42 13 1
42 14 3
42 15 1
42 16 3
42 17 2
42 18 3
42 19 2
42 20 3
42 21 3
42 22 5
42 23 4
42 24 4
42 25 2
42 26 4
42 27 3
42 28 4
42 29 4
42 30 3
42 31 5
42 32 5
42 33 3
42 34 2
42 35 4
42 36 4
42 37 5
42 38 3
42 39 5
42 40 2
42 41 3
43 0 3
43 1 5
43 2 3
43 3 1
43 4 2
43 5 5
43 6 4
43 7 5
43 8 3
43 9 2
43 10 5
43 11 5
43 12 2
43 13 4
43 14 3
43 15 2
43 16 2
43 17 5
43 18 2
43 19 2
43 20 4
43 21 2
43 22 5
43 23 1
43 24 5
43 25 5
43 26 2
43 27 5
43 28 1
43 29 5
43 30 2
43 31 2
43 32 3
43 33 1
43 34 5
43 35 3
43 36 4
43 37 2
43 38 3
43 39 3
43 40 1
43 41 1
43 42 1
44 0 2
44 1 3
44 2 3
44 3 2
44 4 5
44 5 5
44 6 4
44 7 5
44 8 2
44 9 5
44 10 3
44 11 1
44 12 4
44 13 3
44 14 2
44 15 2
44 16 2
44 17 5
44 18 4
44 19 2
44 20 1
44 21 1
44 22 3
44 23 5
44 24 5
44 25 5
44 26 5
44 27 5
44 28 5
44 29 5
44 30 1
44 31 1
44 32 4
44 33 3
44 34 4
44 35 1
44 36 1
44 37 5
44 38 3
44 39 4
44 40 1
44 41 3
44 42 1
44 43 4
45 0 3
45 1 2
45 2 4
45 3 2
45 4 1
45 5 1
45 6 5
45 7 1
45 8 1
45 9 3
45 10 4
45 11 3
45 12 5
45 13 4
45 14 4
45 15 4
45 16 1
45 17 1
45 18 5
45 19 2
45 20 2
45 21 4
45 22 1
45 23 5
45 24 5
45 25 3
45 26 1
45 27 5
45 28 1
45 29 5
45 30 5
45 31 2
45 32 5
45 33 3
45 34 3
45 35 1
45 36 2
45 37 2
45 38 2
45 39 1
45 40 3
45 41 1
45 42 5
45 43 3
45 44 5
46 0 3
46 1 3
46 2 2
46 3 5
46 4 1
46 5 3
46 6 2
46 7 5
46 8 3
46 9 1
46 10 3
46 11 1
46 12 4
46 13 2
46 14 4
46 15 4
46 16 5
46 17 5
46 18 3
46 19 1
46 20 3
46 21 5
46 22 5
46 23 2
46 24 2
46 25 3
46 26 1
46 27 1
46 28 4
46 29 5
46 30 3
46 31 4
46 32 2
46 33 5
46 34 5
46 35 4
46 36 3
46 37 3
46 38 4
46 39 2
46 40 5
46 41 2
46 42 3
46 43 1
46 44 2
46 45 3
47 0 5
47 1 5
47 2 3
47 3 3
47 4 1
47 5 3
47 6 4
47 7 5
47 8 2
47 9 4
47 10 1
47 11 3
47 12 3
47 13 5
47 14 1
47 15 2
47 16 1
47 17 3
47 18 5
47 19 3
47 20 2
47 21 1
47 22 2
47 23 5
47 24 4
47 25 2
47 26 4
47 27 2
47 28 4
47 29 4
47 30 1
47 31 1
47 32 1
47 33 5
47 34 2
47 35 1
47 36 1
47 37 3
47 38 4
47 39 3
47 40 3
47 41 3
47 42 5
47 43 4
47 44 5
47 45 3
47 46 1
48 0 3
48 1 5
48 2 4
48 3 5
48 4 2
48 5 1
48 6 3
48 7 2
48 8 1
48 9 4
48 10 3
48 11 1
48 12 1
48 13 4
48 14 2
48 15 1
48 16 5
48 17 2
48 18 3
48 19 4
48 20 3
48 21 3
48 22 4
48 23 1
48 24 4
48 25 2
48 26 4
48 27 4
48 28 1
48 29 4
48 30 3
48 31 2
48 32 4
48 33 1
48 34 2
48 35 2
48 36 4
48 37 3
48 38 1
48 39 3
48 40 2
48 41 2
48 42 3
48 43 1
48 44 4
48 45 5
48 46 5
48 47 5
49 0 3
49 1 2
49 2 5
49 3 4
49 4 3
49 5 1
49 6 2
49 7 3
49 8 2
49 9 2
49 10 3
49 11 4
49 12 2
49 13 4
49 14 2
49 15 5
49 16 3
49 17 4
49 18 4
49 19 1
49 20 4
49 21 4
49 22 4
49 23 2
49 24 4
49 25 2
49 26 3
49 27 4
49 28 4
49 29 3
49 30 3
49 31 5
49 32 2
49 33 1
49 34 5
49 35 4
49 36 2
49 37 3
49 38 1
49 39 3
49 40 2
49 41 4
49 42 4
49 43 4
49 44 3
49 45 5
49 46 1
49 47 3
49 48 3
50 0 2
50 1 3
50 2 5
50 3 2
50 4 4
50 5 3
50 6 5
50 7 2
50 8 4
50 9 2
50 10 3
50 11 4
50 12 4
50 13 2
50 14 1
50 15 2
50 16 1
50 17 4
50 18 2
50 19 2
50 20 5
50 21 2
50 22 4
50 23 1
50 24 3
50 25 5
50 26 1
50 27 3
50 28 1
50 29 4
50 30 5
50 31 4
50 32 5
50 33 5
50 34 2
50 35 1
50 36 2
50 37 1
50 38 4
50 39 2
50 40 4
50 41 3
50 42 1
50 43 1
50 44 4
50 45 4
50 46 4
50 47 1
50 48 2
50 49 1
51 0 4
51 1 5
51 2 2
51 3 2
51 4 1
51 5 5
51 6 1
51 7 4
51 8 1
51 9 5
51 10 1
51 11 3
51 12 5
51 13 1
51 14 1
51 15 1
51 16 3
51 17 1
51 18 1
51 19 4
51 20 3
51 21 3
51 22 1
51 23 2
51 24 4
51 25 5
51 26 2
51 27 2
51 28 4
51 29 3
51 30 5
51 31 3
51 32 2
51 33 4
51 34 2
51 35 2
51 36 2
51 37 1
51 38 2
51 39 3
51 40 5
51 41 5
51 42 4
51 43 3
51 44 2
51 45 2
51 46 5
51 47 5
51 48 4
51 49 2
51 50 3
52 0 5
52 1 3
52 2 5
52 3 1
52 4 4
52 5 2
52 6 3
52 7 1
52 8 3
52 9 1
52 10 5
52 11 3
52 12 4
52 13 2
52 14 4
52 15 3
52 16 2
52 17 5
52 18 2
52 19 5
52 20 4
52 21 2
52 22 4
52 23 4
52 24 3
52 25 4
52 26 1
52 27 4
52 28 3
52 29 4
52 30 2
52 31 5
52 32 4
52 33 4
52 34 2
52 35 4
52 36 1
52 37 5
52 38 5
52 39 4
52 40 2
52 41 1
52 42 2
52 43 3
52 44 1
52 45 4
52 46 4
52 47 5
52 48 5
52 49 4
52 50 5
52 51 2
53 0 2
53 1 3
53 2 3
53 3 1
53 4 4
53 5 4
53 6 3
53 7 3
53 8 2
53 9 3
53 10 5
53 11 4
53 12 4
53 13 4
53 14 3
53 15 5
53 16 1
53 17 4
53 18 1
53 19 3
53 20 2
53 21 5
53 22 1
53 23 1
53 24 1
53 25 3
53 26 5
53 27 1
53 28 4
53 29 2
53 30 2
53 31 2
53 32 1
53 33 4
53 34 2
53 35 1
53 36 1
53 37 5
53 38 5
53 39 4
53 40 4
53 41 2
53 42 2
53 43 2
53 44 4
53 45 2
53 46 3
53 47 4
53 48 5
53 49 3
53 50 5
53 51 3
53 52 3
54 0 3
54 1 2
54 2 5
54 3 4
54 4 4
54 5 3
54 6 4
54 7 4
54 8 3
54 9 2
54 10 1
54 11 4
54 12 1
54 13 1
54 14 2
54 15 2
54 16 4
54 17 2
54 18 2
54 19 1
54 20 4
54 21 4
54 22 4
54 23 2
54 24 3
54 25 2
54 26 3
54 27 4
54 28 5
54 29 1
54 30 5
54 31 1
54 32 2
54 33 1
54 34 3
54 35 5
54 36 3
54 37 4
54 38 5
54 39 5
54 40 5
54 41 4
54 42 5
54 43 4
54 44 1
54 45 4
54 46 3
54 47 5
54 48 4
54 49 3
54 50 2
54 51 3
54 52 4
54 53 1
